$molecule
0 1
C
$end

$rem
jobtype opt
method soscis(d)
basis cc-pvdz
aux_basis rimp2-cc-pvdz
cis_n_roots 4
cis_singlets true
cis_triplets false
gui 2
mem_total 40000
mem_static 2000
cis_state_deriv 1
symmetry false
$end


